networks/zoo_134_4422/zoo_134_4422.txt
Number of groups: 77
Flow 7: {1 8} {8 75} 
Flow 40: {40 41} {41 108} 
Flow 46: {64 50} {50 51} {51 52} {52 47} {47 114} 
Flow 48: {5 6} {6 49} {49 116} 
Flow 59: {35 63} {63 62} {62 61} {61 60} {60 127} 
Flow 67: {63 35} {35 8} {8 1} {1 68} 
Flow 183: {52 119} 
Flow 192: {3 60} 
Flow 255: {4 3} {3 58} {58 125} 
Flow 359: {49 56} {56 30} {30 97} 
Flow 432: {7 35} {35 36} {36 37} {37 104} 
Flow 435: {18 43} {43 40} {40 107} 
Flow 452: {62 57} {57 124} 
Flow 493: {36 32} 
Flow 514: {59 3} {3 53} {53 120} 
Flow 533: {46 5} {5 72} 
Flow 559: {9 46} {46 37} {37 32} {32 99} 
Flow 612: {25 21} {21 20} {20 19} {19 86} 
Flow 813: {41 24} {24 22} {22 89} 
Flow 824: {10 33} {33 100} 
Flow 877: {29 31} 
Flow 885: {16 13} {13 10} {10 27} {27 28} {28 95} 
Flow 886: {14 16} {16 29} {29 96} 
Flow 1110: {47 55} {55 122} 
Flow 1205: {26 17} {17 84} 
Flow 1213: {21 25} {25 26} {26 93} 
Flow 1238: {54 55} {55 47} {47 52} {52 51} {51 118} 
Flow 1254: {48 54} {54 67} {67 134} 
Flow 1298: {18 42} {42 45} {45 112} 
Flow 1367: {19 48} {48 115} 
Flow 1389: {66 58} {58 3} {3 70} 
Flow 1404: {39 18} {18 85} 
Flow 1465: {42 33} {33 10} {10 13} {13 80} 
Flow 1475: {23 34} {34 22} {22 24} {24 91} 
Flow 1532: {24 41} {41 40} 
Flow 1556: {34 38} {38 39} {39 106} 
Flow 1561: {43 33} {33 45} {45 44} {44 111} 
Flow 1693: {31 44} 
Flow 1730: {13 16} {16 14} {14 81} 
Flow 1792: {28 27} {27 10} {10 77} 
Flow 1812: {33 42} {42 31} {31 98} 
Flow 1837: {15 12} {12 56} {56 123} 
Flow 1895: {18 17} {17 50} {50 64} {64 65} {65 67} 
Flow 1920: {30 56} {56 49} {49 6} {6 73} 
Flow 1929: {30 15} {15 82} 
Flow 2055: {32 37} {37 46} {46 9} {9 76} 
Flow 2256: {8 5} {5 12} {12 79} 
Flow 2312: {32 63} {63 2} {2 69} 
Flow 2347: {17 18} {18 39} {39 38} {38 105} 
Flow 2411: {37 36} {36 35} {35 102} 
Flow 2582: {40 43} {43 18} 
Flow 2608: {22 34} {34 101} 
Flow 2880: {44 31} {31 42} {42 109} 
Flow 2881: {44 45} {45 33} {33 43} {43 110} 
Flow 2938: {45 42} {42 18} 
Flow 2993: {38 34} {34 23} {23 90} 
Flow 2997: {27 94} 
Flow 3033: {2 64} {64 131} 
Flow 3132: {31 15} {15 30} 
Flow 3134: {65 64} {64 2} {2 63} {63 32} 
Flow 3175: {6 5} {5 8} {8 35} {35 7} {7 74} 
Flow 3419: {55 54} {54 121} 
Flow 3468: {32 36} {36 103} 
Flow 3493: {53 3} {3 59} {59 57} {57 62} {62 129} 
Flow 3519: {20 21} {21 88} 
Flow 3614: {51 50} {50 117} 
Flow 3692: {56 12} {12 5} {5 11} {11 63} {63 130} 
Flow 3742: {11 5} {5 46} {46 113} 
Flow 3898: {60 3} {3 4} {4 71} 
Flow 3910: {12 15} {15 31} {31 29} {29 16} {16 83} 
Flow 3914: {67 54} {54 48} {48 19} {19 20} {20 87} 
Flow 3958: {58 66} {66 67} {67 65} {65 132} 
Flow 3971: {61 62} {62 63} {63 11} {11 78} 
Flow 4157: {57 59} {59 66} {66 133} 
Flow 4249: {50 17} {17 26} {26 25} {25 92} 
Flow 4351: {60 61} {61 128} 
Flow 4415: {67 66} {66 59} {59 126} 
Time taken running everything: 652 seconds
