networks/zoo_134_4422/zoo_134_4422.sol
<?xml version = "1.0" encoding="UTF-8" standalone="yes"?>
<CPLEXSolution version="1.2">
 <header
   problemName="networks/zoo_134_4422/zoo_134_4422.lp"
   solutionName="incumbent"
   solutionIndex="-1"
   objectiveValue="69"
   solutionTypeValue="3"
   solutionTypeString="primal"
   solutionStatusValue="101"
   solutionStatusString="integer optimal solution"
   solutionMethodString="mip"
   primalFeasible="1"
   dualFeasible="1"
   MIPNodes="1254"
   MIPIterations="335577"
   writeLevel="3"/>
 <quality
   epInt="1.0000000000000001e-05"
   epRHS="9.9999999999999995e-07"
   maxIntInfeas="0"
   maxPrimalInfeas="2.000000165480742e-09"
   maxX="4"
   maxSlack="10"/>
 <variables>
  <variable name="Y(10,11)" index="1216" value="1"/>
  <variable name="Y(11,12)" index="1351" value="1"/>
  <variable name="Y(19,20)" index="2431" value="1"/>
  <variable name="Y(21,22)" index="2701" value="1"/>
  <variable name="Y(56,57)" index="7426" value="1"/>
  <variable name="Y(65,66)" index="8641" value="1"/>
  <variable name="Y(66,67)" index="8776" value="1"/>
  <variable name="Y(179,48)" index="23899" value="1"/>
  <variable name="Y(194,63)" index="25924" value="1"/>
  <variable name="Y(222,25)" index="29638" value="1"/>
  <variable name="Y(237,40)" index="31663" value="1"/>
  <variable name="Y(248,51)" index="33148" value="1"/>
  <variable name="Y(257,60)" index="34363" value="1"/>
  <variable name="Y(331,1)" index="44220" value="1"/>
  <variable name="Y(359,30)" index="48001" value="1"/>
  <variable name="Y(387,58)" index="51781" value="1"/>
  <variable name="Y(403,8)" index="53875" value="1"/>
  <variable name="Y(427,32)" index="57115" value="1"/>
  <variable name="Y(563,36)" index="75343" value="1"/>
  <variable name="Y(599,5)" index="80136" value="1"/>
  <variable name="Y(694,35)" index="92896" value="1"/>
  <variable name="Y(820,29)" index="109774" value="1"/>
  <variable name="Y(868,10)" index="116187" value="1"/>
  <variable name="Y(878,21)" index="117538" value="1"/>
  <variable name="Y(1233,46)" index="165133" value="1"/>
  <variable name="Y(1239,52)" index="165943" value="1"/>
  <variable name="Y(1271,17)" index="170196" value="1"/>
  <variable name="Y(1318,65)" index="176542" value="1"/>
  <variable name="Y(1374,55)" index="184036" value="1"/>
  <variable name="Y(1484,33)" index="198754" value="1"/>
  <variable name="Y(1489,38)" index="199429" value="1"/>
  <variable name="Y(1492,41)" index="199834" value="1"/>
  <variable name="Y(1512,61)" index="202534" value="1"/>
  <variable name="Y(1536,18)" index="205707" value="1"/>
  <variable name="Y(1541,23)" index="206382" value="1"/>
  <variable name="Y(1702,53)" index="227986" value="1"/>
  <variable name="Y(1795,13)" index="240408" value="1"/>
  <variable name="Y(1823,42)" index="244189" value="1"/>
  <variable name="Y(1825,45)" index="244460" value="1"/>
  <variable name="Y(1877,15)" index="251398" value="1"/>
  <variable name="Y(1920,6)" index="257151" value="1"/>
  <variable name="Y(1958,45)" index="262282" value="1"/>
  <variable name="Y(1960,47)" index="262552" value="1"/>
  <variable name="Y(2043,64)" index="273691" value="1"/>
  <variable name="Y(2053,7)" index="274974" value="1"/>
  <variable name="Y(2145,34)" index="287329" value="1"/>
  <variable name="Y(2204,26)" index="295227" value="1"/>
  <variable name="Y(2206,28)" index="295497" value="1"/>
  <variable name="Y(2263,19)" index="303126" value="1"/>
  <variable name="Y(2319,9)" index="310620" value="1"/>
  <variable name="Y(2334,24)" index="312645" value="1"/>
  <variable name="Y(2378,2)" index="318519" value="1"/>
  <variable name="Y(2424,49)" index="324730" value="1"/>
  <variable name="Y(2500,59)" index="334924" value="1"/>
  <variable name="Y(2588,14)" index="346671" value="1"/>
  <variable name="Y(2667,27)" index="357270" value="1"/>
  <variable name="Y(2854,16)" index="382317" value="1"/>
  <variable name="Y(2881,43)" index="385962" value="1"/>
  <variable name="Y(2935,31)" index="393186" value="1"/>
  <variable name="Y(2943,39)" index="394266" value="1"/>
  <variable name="Y(3073,37)" index="411684" value="1"/>
  <variable name="Y(3183,15)" index="426402" value="1"/>
  <variable name="Y(3289,56)" index="440647" value="1"/>
  <variable name="Y(3344,44)" index="448005" value="1"/>
  <variable name="Y(3419,54)" index="458065" value="1"/>
  <variable name="Y(3436,4)" index="460293" value="1"/>
  <variable name="Y(3614,50)" index="484191" value="1"/>
  <variable name="Y(3955,62)" index="529897" value="1"/>
  <variable name="Y(3963,3)" index="530910" value="1"/>
  <variable name="X(1,8,11)" index="592558" value="1"/>
  <variable name="X(1,68,331)" index="597300" value="1"/>
  <variable name="X(2,63,3073)" index="604464" value="1"/>
  <variable name="X(2,64,66)" index="605879" value="1"/>
  <variable name="X(2,69,2378)" index="612613" value="1"/>
  <variable name="X(3,4,3436)" index="618093" value="1"/>
  <variable name="X(3,53,1702)" index="620781" value="1"/>
  <variable name="X(3,58,387)" index="623888" value="1"/>
  <variable name="X(3,59,194)" index="628117" value="1"/>
  <variable name="X(3,60,257)" index="632602" value="1"/>
  <variable name="X(3,70,3963)" index="640730" value="1"/>
  <variable name="X(4,3,257)" index="641446" value="1"/>
  <variable name="X(4,71,3436)" index="649047" value="1"/>
  <variable name="X(5,6,2424)" index="652457" value="1"/>
  <variable name="X(5,8,331)" index="654786" value="1"/>
  <variable name="X(5,11,10)" index="658887" value="1"/>
  <variable name="X(5,12,11)" index="663310" value="1"/>
  <variable name="X(5,46,1233)" index="668954" value="1"/>
  <variable name="X(5,72,599)" index="672742" value="1"/>
  <variable name="X(6,5,331)" index="676896" value="1"/>
  <variable name="X(6,49,2424)" index="683411" value="1"/>
  <variable name="X(6,73,1920)" index="687329" value="1"/>
  <variable name="X(7,35,427)" index="690258" value="1"/>
  <variable name="X(7,74,2053)" index="696306" value="1"/>
  <variable name="X(8,1,331)" index="699006" value="1"/>
  <variable name="X(8,5,11)" index="703108" value="1"/>
  <variable name="X(8,35,56)" index="707575" value="1"/>
  <variable name="X(8,75,403)" index="712344" value="1"/>
  <variable name="X(9,46,563)" index="716926" value="1"/>
  <variable name="X(9,76,2319)" index="723104" value="1"/>
  <variable name="X(10,13,1795)" index="727002" value="1"/>
  <variable name="X(10,27,2667)" index="732296" value="1"/>
  <variable name="X(10,33,1823)" index="735874" value="1"/>
  <variable name="X(10,77,868)" index="739341" value="1"/>
  <variable name="X(11,5,1233)" index="744128" value="1"/>
  <variable name="X(11,63,694)" index="748011" value="1"/>
  <variable name="X(11,78,10)" index="751749" value="1"/>
  <variable name="X(12,5,599)" index="756760" value="1"/>
  <variable name="X(12,15,3183)" index="763766" value="1"/>
  <variable name="X(12,56,3289)" index="768294" value="1"/>
  <variable name="X(12,79,11)" index="769438" value="1"/>
  <variable name="X(13,10,868)" index="774717" value="1"/>
  <variable name="X(13,16,820)" index="779091" value="1"/>
  <variable name="X(13,80,1795)" index="784488" value="1"/>
  <variable name="X(14,16,868)" index="787983" value="1"/>
  <variable name="X(14,81,2588)" index="794125" value="1"/>
  <variable name="X(15,12,599)" index="796558" value="1"/>
  <variable name="X(15,30,1877)" index="802258" value="1"/>
  <variable name="X(15,31,1958)" index="806761" value="1"/>
  <variable name="X(15,82,3183)" index="812408" value="1"/>
  <variable name="X(16,13,868)" index="814515" value="1"/>
  <variable name="X(16,14,2588)" index="820657" value="1"/>
  <variable name="X(16,29,820)" index="823311" value="1"/>
  <variable name="X(16,83,2854)" index="829767" value="1"/>
  <variable name="X(17,18,237)" index="831572" value="1"/>
  <variable name="X(17,26,2204)" index="837961" value="1"/>
  <variable name="X(17,50,2043)" index="842222" value="1"/>
  <variable name="X(17,84,1271)" index="845872" value="1"/>
  <variable name="X(18,17,2204)" index="851227" value="1"/>
  <variable name="X(18,39,2943)" index="856388" value="1"/>
  <variable name="X(18,42,1484)" index="859351" value="1"/>
  <variable name="X(18,43,237)" index="862526" value="1"/>
  <variable name="X(18,85,1536)" index="868247" value="1"/>
  <variable name="X(19,20,222)" index="871355" value="1"/>
  <variable name="X(19,48,1374)" index="876929" value="1"/>
  <variable name="X(19,86,2263)" index="882240" value="1"/>
  <variable name="X(20,19,1374)" index="885773" value="1"/>
  <variable name="X(20,21,222)" index="889043" value="1"/>
  <variable name="X(20,87,19)" index="893262" value="1"/>
  <variable name="X(21,20,19)" index="897684" value="1"/>
  <variable name="X(21,25,222)" index="902309" value="1"/>
  <variable name="X(21,88,878)" index="907387" value="1"/>
  <variable name="X(22,24,1492)" index="912423" value="1"/>
  <variable name="X(22,34,1541)" index="916894" value="1"/>
  <variable name="X(22,89,21)" index="919796" value="1"/>
  <variable name="X(23,34,1489)" index="925686" value="1"/>
  <variable name="X(23,90,1541)" index="930160" value="1"/>
  <variable name="X(24,22,1541)" index="934582" value="1"/>
  <variable name="X(24,41,1492)" index="938955" value="1"/>
  <variable name="X(24,91,2334)" index="944219" value="1"/>
  <variable name="X(25,21,878)" index="947185" value="1"/>
  <variable name="X(25,26,1271)" index="952000" value="1"/>
  <variable name="X(25,92,222)" index="955373" value="1"/>
  <variable name="X(26,17,1271)" index="960844" value="1"/>
  <variable name="X(26,25,878)" index="964873" value="1"/>
  <variable name="X(26,93,2204)" index="970621" value="1"/>
  <variable name="X(27,10,1795)" index="974634" value="1"/>
  <variable name="X(27,28,2206)" index="979467" value="1"/>
  <variable name="X(27,94,2667)" index="984350" value="1"/>
  <variable name="X(28,27,1795)" index="987900" value="1"/>
  <variable name="X(28,95,2206)" index="992733" value="1"/>
  <variable name="X(29,16,2854)" index="997803" value="1"/>
  <variable name="X(29,31,1877)" index="1001248" value="1"/>
  <variable name="X(29,96,820)" index="1004613" value="1"/>
  <variable name="X(30,15,1958)" index="1010173" value="1"/>
  <variable name="X(30,56,1920)" index="1014557" value="1"/>
  <variable name="X(30,97,359)" index="1017418" value="1"/>
  <variable name="X(31,15,1877)" index="1023358" value="1"/>
  <variable name="X(31,29,2854)" index="1028757" value="1"/>
  <variable name="X(31,42,1958)" index="1032283" value="1"/>
  <variable name="X(31,44,3344)" index="1038091" value="1"/>
  <variable name="X(31,98,2935)" index="1042104" value="1"/>
  <variable name="X(32,36,2053)" index="1045644" value="1"/>
  <variable name="X(32,37,3073)" index="1051086" value="1"/>
  <variable name="X(32,63,2378)" index="1054813" value="1"/>
  <variable name="X(32,99,427)" index="1057284" value="1"/>
  <variable name="X(33,10,2667)" index="1063946" value="1"/>
  <variable name="X(33,42,1823)" index="1067524" value="1"/>
  <variable name="X(33,43,2881)" index="1073004" value="1"/>
  <variable name="X(33,45,1825)" index="1076370" value="1"/>
  <variable name="X(33,100,1484)" index="1080451" value="1"/>
  <variable name="X(34,22,21)" index="1083410" value="1"/>
  <variable name="X(34,23,1541)" index="1089352" value="1"/>
  <variable name="X(34,38,1489)" index="1093722" value="1"/>
  <variable name="X(34,101,2145)" index="1098800" value="1"/>
  <variable name="X(35,7,2053)" index="1103130" value="1"/>
  <variable name="X(35,8,403)" index="1105902" value="1"/>
  <variable name="X(35,36,427)" index="1110348" value="1"/>
  <variable name="X(35,63,56)" index="1114399" value="1"/>
  <variable name="X(35,102,694)" index="1119459" value="1"/>
  <variable name="X(36,32,427)" index="1123614" value="1"/>
  <variable name="X(36,35,2053)" index="1129662" value="1"/>
  <variable name="X(36,37,2319)" index="1134350" value="1"/>
  <variable name="X(36,103,563)" index="1137016" value="1"/>
  <variable name="X(37,32,2378)" index="1143253" value="1"/>
  <variable name="X(37,36,563)" index="1145860" value="1"/>
  <variable name="X(37,46,2319)" index="1152038" value="1"/>
  <variable name="X(37,104,3073)" index="1157214" value="1"/>
  <variable name="X(38,34,2145)" index="1160708" value="1"/>
  <variable name="X(38,39,1484)" index="1164469" value="1"/>
  <variable name="X(38,105,1489)" index="1168896" value="1"/>
  <variable name="X(39,18,1484)" index="1173313" value="1"/>
  <variable name="X(39,38,2145)" index="1178396" value="1"/>
  <variable name="X(39,106,2943)" index="1183616" value="1"/>
  <variable name="X(40,41,2334)" index="1187429" value="1"/>
  <variable name="X(40,43,1536)" index="1191053" value="1"/>
  <variable name="X(40,107,237)" index="1194176" value="1"/>
  <variable name="X(41,24,2334)" index="1200695" value="1"/>
  <variable name="X(41,40,1536)" index="1204319" value="1"/>
  <variable name="X(41,108,1492)" index="1208697" value="1"/>
  <variable name="X(42,18,2943)" index="1214570" value="1"/>
  <variable name="X(42,31,2935)" index="1218984" value="1"/>
  <variable name="X(42,33,1484)" index="1221955" value="1"/>
  <variable name="X(42,45,1958)" index="1226851" value="1"/>
  <variable name="X(42,109,1823)" index="1231138" value="1"/>
  <variable name="X(43,18,1536)" index="1235273" value="1"/>
  <variable name="X(43,33,2667)" index="1240826" value="1"/>
  <variable name="X(43,40,237)" index="1242818" value="1"/>
  <variable name="X(43,110,2881)" index="1249884" value="1"/>
  <variable name="X(44,31,2854)" index="1254279" value="1"/>
  <variable name="X(44,45,2881)" index="1258728" value="1"/>
  <variable name="X(44,111,3344)" index="1263613" value="1"/>
  <variable name="X(45,33,2881)" index="1267572" value="1"/>
  <variable name="X(45,42,2935)" index="1272048" value="1"/>
  <variable name="X(45,44,1825)" index="1275360" value="1"/>
  <variable name="X(45,112,1958)" index="1279915" value="1"/>
  <variable name="X(46,5,2424)" index="1284803" value="1"/>
  <variable name="X(46,9,2319)" index="1289120" value="1"/>
  <variable name="X(46,37,563)" index="1291786" value="1"/>
  <variable name="X(46,113,1233)" index="1296878" value="1"/>
  <variable name="X(47,52,3614)" index="1303681" value="1"/>
  <variable name="X(47,55,3419)" index="1307908" value="1"/>
  <variable name="X(47,114,1960)" index="1310871" value="1"/>
  <variable name="X(48,19,2263)" index="1315596" value="1"/>
  <variable name="X(48,54,1374)" index="1319129" value="1"/>
  <variable name="X(48,115,179)" index="1322356" value="1"/>
  <variable name="X(49,6,1920)" index="1328519" value="1"/>
  <variable name="X(49,56,359)" index="1331380" value="1"/>
  <variable name="X(49,116,2424)" index="1337867" value="1"/>
  <variable name="X(50,17,237)" index="1340102" value="1"/>
  <variable name="X(50,51,248)" index="1344535" value="1"/>
  <variable name="X(50,64,2043)" index="1350752" value="1"/>
  <variable name="X(50,117,3614)" index="1356745" value="1"/>
  <variable name="X(51,50,3614)" index="1361167" value="1"/>
  <variable name="X(51,52,1960)" index="1363935" value="1"/>
  <variable name="X(51,118,248)" index="1366645" value="1"/>
  <variable name="X(52,47,1960)" index="1372779" value="1"/>
  <variable name="X(52,51,3614)" index="1378855" value="1"/>
  <variable name="X(52,119,1239)" index="1380902" value="1"/>
  <variable name="X(53,3,3436)" index="1387521" value="1"/>
  <variable name="X(53,120,1702)" index="1390209" value="1"/>
  <variable name="X(54,48,179)" index="1393108" value="1"/>
  <variable name="X(54,55,1374)" index="1398725" value="1"/>
  <variable name="X(54,67,1318)" index="1403091" value="1"/>
  <variable name="X(54,121,3419)" index="1409614" value="1"/>
  <variable name="X(55,47,3614)" index="1414231" value="1"/>
  <variable name="X(55,54,3419)" index="1418458" value="1"/>
  <variable name="X(55,122,1374)" index="1420835" value="1"/>
  <variable name="X(56,12,3183)" index="1427066" value="1"/>
  <variable name="X(56,30,359)" index="1428664" value="1"/>
  <variable name="X(56,49,1920)" index="1434647" value="1"/>
  <variable name="X(56,123,3289)" index="1440438" value="1"/>
  <variable name="X(57,59,387)" index="1441958" value="1"/>
  <variable name="X(57,62,194)" index="1446187" value="1"/>
  <variable name="X(57,124,56)" index="1450471" value="1"/>
  <variable name="X(58,3,1702)" index="1456539" value="1"/>
  <variable name="X(58,66,179)" index="1459438" value="1"/>
  <variable name="X(58,125,387)" index="1464068" value="1"/>
  <variable name="X(59,3,387)" index="1468490" value="1"/>
  <variable name="X(59,57,194)" index="1472719" value="1"/>
  <variable name="X(59,66,65)" index="1477012" value="1"/>
  <variable name="X(59,126,2500)" index="1483869" value="1"/>
  <variable name="X(60,3,3963)" index="1489754" value="1"/>
  <variable name="X(60,61,3955)" index="1494168" value="1"/>
  <variable name="X(60,127,257)" index="1494892" value="1"/>
  <variable name="X(61,60,3963)" index="1503020" value="1"/>
  <variable name="X(61,62,3955)" index="1507434" value="1"/>
  <variable name="X(61,128,1512)" index="1509413" value="1"/>
  <variable name="X(62,57,56)" index="1512379" value="1"/>
  <variable name="X(62,61,1512)" index="1518257" value="1"/>
  <variable name="X(62,63,194)" index="1521361" value="1"/>
  <variable name="X(62,129,3955)" index="1529544" value="1"/>
  <variable name="X(63,2,2378)" index="1532389" value="1"/>
  <variable name="X(63,11,1233)" index="1535666" value="1"/>
  <variable name="X(63,32,3073)" index="1541928" value="1"/>
  <variable name="X(63,35,694)" index="1543971" value="1"/>
  <variable name="X(63,62,56)" index="1547755" value="1"/>
  <variable name="X(63,130,194)" index="1552315" value="1"/>
  <variable name="X(64,2,3073)" index="1559616" value="1"/>
  <variable name="X(64,50,248)" index="1561213" value="1"/>
  <variable name="X(64,65,66)" index="1565453" value="1"/>
  <variable name="X(64,131,2043)" index="1571852" value="1"/>
  <variable name="X(65,64,248)" index="1574479" value="1"/>
  <variable name="X(65,67,66)" index="1578719" value="1"/>
  <variable name="X(65,132,1318)" index="1584393" value="1"/>
  <variable name="X(66,58,1702)" index="1589199" value="1"/>
  <variable name="X(66,59,2500)" index="1594419" value="1"/>
  <variable name="X(66,67,179)" index="1596520" value="1"/>
  <variable name="X(66,133,65)" index="1600828" value="1"/>
  <variable name="X(67,54,179)" index="1605364" value="1"/>
  <variable name="X(67,65,1318)" index="1610925" value="1"/>
  <variable name="X(67,66,2500)" index="1616529" value="1"/>
  <variable name="X(67,134,66)" index="1618517" value="1"/>
  <variable name="C(10,11)" index="1622926" value="1"/>
  <variable name="C(11,8)" index="1622928" value="1"/>
  <variable name="C(11,5)" index="1622929" value="2"/>
  <variable name="C(11,12)" index="1622930" value="3"/>
  <variable name="C(19,20)" index="1623000" value="1"/>
  <variable name="C(21,22)" index="1623023" value="1"/>
  <variable name="C(56,35)" index="1623302" value="1"/>
  <variable name="C(56,63)" index="1623303" value="2"/>
  <variable name="C(56,62)" index="1623304" value="3"/>
  <variable name="C(56,57)" index="1623305" value="4"/>
  <variable name="C(65,66)" index="1623364" value="1"/>
  <variable name="C(66,64)" index="1623370" value="1"/>
  <variable name="C(66,65)" index="1623371" value="2"/>
  <variable name="C(66,67)" index="1623372" value="3"/>
  <variable name="C(179,66)" index="1624196" value="1"/>
  <variable name="C(179,67)" index="1624197" value="2"/>
  <variable name="C(179,54)" index="1624198" value="3"/>
  <variable name="C(179,48)" index="1624199" value="4"/>
  <variable name="C(194,59)" index="1624271" value="1"/>
  <variable name="C(194,57)" index="1624272" value="2"/>
  <variable name="C(194,62)" index="1624273" value="3"/>
  <variable name="C(194,63)" index="1624274" value="4"/>
  <variable name="C(222,20)" index="1624530" value="1"/>
  <variable name="C(222,21)" index="1624531" value="2"/>
  <variable name="C(222,25)" index="1624532" value="3"/>
  <variable name="C(237,17)" index="1624692" value="1"/>
  <variable name="C(237,18)" index="1624693" value="2"/>
  <variable name="C(237,43)" index="1624694" value="3"/>
  <variable name="C(237,40)" index="1624695" value="4"/>
  <variable name="C(248,64)" index="1624803" value="1"/>
  <variable name="C(248,50)" index="1624804" value="2"/>
  <variable name="C(248,51)" index="1624805" value="3"/>
  <variable name="C(257,3)" index="1624852" value="1"/>
  <variable name="C(257,60)" index="1624853" value="2"/>
  <variable name="C(331,5)" index="1625298" value="1"/>
  <variable name="C(331,8)" index="1625299" value="2"/>
  <variable name="C(331,1)" index="1625300" value="3"/>
  <variable name="C(359,56)" index="1625506" value="1"/>
  <variable name="C(359,30)" index="1625507" value="2"/>
  <variable name="C(387,59)" index="1625703" value="1"/>
  <variable name="C(387,3)" index="1625704" value="2"/>
  <variable name="C(387,58)" index="1625705" value="3"/>
  <variable name="C(403,8)" index="1625798" value="1"/>
  <variable name="C(427,35)" index="1626004" value="1"/>
  <variable name="C(427,36)" index="1626005" value="2"/>
  <variable name="C(427,32)" index="1626006" value="3"/>
  <variable name="C(563,46)" index="1626962" value="1"/>
  <variable name="C(563,37)" index="1626963" value="2"/>
  <variable name="C(563,36)" index="1626964" value="3"/>
  <variable name="C(599,12)" index="1627262" value="1"/>
  <variable name="C(599,5)" index="1627263" value="2"/>
  <variable name="C(694,63)" index="1627921" value="1"/>
  <variable name="C(694,35)" index="1627922" value="2"/>
  <variable name="C(820,16)" index="1628723" value="1"/>
  <variable name="C(820,29)" index="1628724" value="2"/>
  <variable name="C(868,16)" index="1629134" value="1"/>
  <variable name="C(868,13)" index="1629135" value="2"/>
  <variable name="C(868,10)" index="1629136" value="3"/>
  <variable name="C(878,25)" index="1629205" value="1"/>
  <variable name="C(878,21)" index="1629206" value="2"/>
  <variable name="C(1233,11)" index="1631680" value="1"/>
  <variable name="C(1233,5)" index="1631681" value="2"/>
  <variable name="C(1233,46)" index="1631682" value="3"/>
  <variable name="C(1271,26)" index="1631988" value="1"/>
  <variable name="C(1271,17)" index="1631989" value="2"/>
  <variable name="C(1318,67)" index="1632359" value="1"/>
  <variable name="C(1318,65)" index="1632360" value="2"/>
  <variable name="C(1374,19)" index="1632789" value="1"/>
  <variable name="C(1374,48)" index="1632790" value="2"/>
  <variable name="C(1374,54)" index="1632791" value="3"/>
  <variable name="C(1374,55)" index="1632792" value="4"/>
  <variable name="C(1484,39)" index="1633775" value="1"/>
  <variable name="C(1484,18)" index="1633776" value="2"/>
  <variable name="C(1484,42)" index="1633777" value="3"/>
  <variable name="C(1484,33)" index="1633778" value="4"/>
  <variable name="C(1489,34)" index="1633817" value="1"/>
  <variable name="C(1489,38)" index="1633818" value="2"/>
  <variable name="C(1492,24)" index="1633832" value="1"/>
  <variable name="C(1492,41)" index="1633833" value="2"/>
  <variable name="C(1512,61)" index="1634035" value="1"/>
  <variable name="C(1536,40)" index="1634265" value="1"/>
  <variable name="C(1536,43)" index="1634266" value="2"/>
  <variable name="C(1536,18)" index="1634267" value="3"/>
  <variable name="C(1541,22)" index="1634301" value="1"/>
  <variable name="C(1541,34)" index="1634302" value="2"/>
  <variable name="C(1541,23)" index="1634303" value="3"/>
  <variable name="C(1702,58)" index="1635490" value="1"/>
  <variable name="C(1702,3)" index="1635491" value="1.9999999999999982"/>
  <variable name="C(1702,53)" index="1635492" value="2.9999999999999982"/>
  <variable name="C(1795,27)" index="1636265" value="1"/>
  <variable name="C(1795,10)" index="1636266" value="2"/>
  <variable name="C(1795,13)" index="1636267" value="3"/>
  <variable name="C(1823,33)" index="1636488" value="1"/>
  <variable name="C(1823,42)" index="1636489" value="2"/>
  <variable name="C(1825,45)" index="1636499" value="1"/>
  <variable name="C(1877,31)" index="1636936" value="1"/>
  <variable name="C(1877,15)" index="1636937" value="2"/>
  <variable name="C(1920,56)" index="1637248" value="1"/>
  <variable name="C(1920,49)" index="1637249" value="2"/>
  <variable name="C(1920,6)" index="1637250" value="3"/>
  <variable name="C(1958,15)" index="1637489" value="1"/>
  <variable name="C(1958,31)" index="1637490" value="2"/>
  <variable name="C(1958,42)" index="1637491" value="3"/>
  <variable name="C(1958,45)" index="1637492" value="4"/>
  <variable name="C(1960,52)" index="1637506" value="1"/>
  <variable name="C(1960,47)" index="1637507" value="2"/>
  <variable name="C(2043,50)" index="1638048" value="1"/>
  <variable name="C(2043,64)" index="1638049" value="2"/>
  <variable name="C(2053,36)" index="1638105" value="1"/>
  <variable name="C(2053,35)" index="1638106" value="2"/>
  <variable name="C(2053,7)" index="1638107" value="3"/>
  <variable name="C(2145,38)" index="1638717" value="1"/>
  <variable name="C(2145,34)" index="1638718" value="2"/>
  <variable name="C(2204,17)" index="1639159" value="1"/>
  <variable name="C(2204,26)" index="1639160" value="2"/>
  <variable name="C(2206,28)" index="1639177" value="1"/>
  <variable name="C(2263,19)" index="1639599" value="1"/>
  <variable name="C(2319,37)" index="1639959" value="1"/>
  <variable name="C(2319,46)" index="1639960" value="2"/>
  <variable name="C(2319,9)" index="1639961" value="3"/>
  <variable name="C(2334,41)" index="1640096" value="1"/>
  <variable name="C(2334,24)" index="1640097" value="2"/>
  <variable name="C(2378,32)" index="1640407" value="1"/>
  <variable name="C(2378,63)" index="1640408" value="2"/>
  <variable name="C(2378,2)" index="1640409" value="3"/>
  <variable name="C(2424,5)" index="1640749" value="1"/>
  <variable name="C(2424,6)" index="1640750" value="2"/>
  <variable name="C(2424,49)" index="1640751" value="3"/>
  <variable name="C(2500,66)" index="1641282" value="1"/>
  <variable name="C(2500,59)" index="1641283" value="2"/>
  <variable name="C(2588,14)" index="1641900" value="1"/>
  <variable name="C(2667,33)" index="1642467" value="1"/>
  <variable name="C(2667,10)" index="1642468" value="2"/>
  <variable name="C(2667,27)" index="1642469" value="3"/>
  <variable name="C(2854,31)" index="1643697" value="1"/>
  <variable name="C(2854,29)" index="1643698" value="2"/>
  <variable name="C(2854,16)" index="1643699" value="3"/>
  <variable name="C(2881,45)" index="1643858" value="1"/>
  <variable name="C(2881,33)" index="1643859" value="2"/>
  <variable name="C(2881,43)" index="1643860" value="3"/>
  <variable name="C(2935,42)" index="1644241" value="1"/>
  <variable name="C(2935,31)" index="1644242" value="2"/>
  <variable name="C(2943,18)" index="1644292" value="1"/>
  <variable name="C(2943,39)" index="1644293" value="2"/>
  <variable name="C(3073,2)" index="1645270" value="1"/>
  <variable name="C(3073,63)" index="1645271" value="2"/>
  <variable name="C(3073,32)" index="1645272" value="3"/>
  <variable name="C(3073,37)" index="1645273" value="4"/>
  <variable name="C(3183,12)" index="1646091" value="1"/>
  <variable name="C(3183,15)" index="1646092" value="2.0000000020000002"/>
  <variable name="C(3289,56)" index="1646822" value="1"/>
  <variable name="C(3344,44)" index="1647174" value="1"/>
  <variable name="C(3419,55)" index="1647689" value="1"/>
  <variable name="C(3419,54)" index="1647690" value="2"/>
  <variable name="C(3436,3)" index="1647795" value="1"/>
  <variable name="C(3436,4)" index="1647796" value="2"/>
  <variable name="C(3614,47)" index="1649290" value="1"/>
  <variable name="C(3614,52)" index="1649291" value="2"/>
  <variable name="C(3614,51)" index="1649292" value="3"/>
  <variable name="C(3614,50)" index="1649293" value="4"/>
  <variable name="C(3955,61)" index="1651816" value="1"/>
  <variable name="C(3955,62)" index="1651817" value="2"/>
  <variable name="C(3963,60)" index="1651854" value="1"/>
  <variable name="C(3963,3)" index="1651855" value="2"/>
 </variables>
</CPLEXSolution>
